instances/p2/p2_15_3-1.dzn
Alphabet = {A,C,G,T};
ns = 15;
nc = 3;
neighbours = [| Null,Null,Null | Null,Null,Null | I(G),Null,Null | I(T),I(A),Null | I(G),I(G),I(C) | I(G),I(G),Null | I(C),I(T),I(T) | I(C),I(A),Null | I(A),I(T),I(T) | I(T),Null,Null | I(G),Null,Null | I(A),I(T),Null | I(G),Null,Null | I(T),Null,Null | I(G),Null,Null |];
